2025-10-19 00:29:19,663 - INFO - 📌 第一个 epoch：默认所有模块使用 checkpoint
2025-10-19 00:29:29,897 - INFO - Epoch 1 completed in 10.251029 seconds
2025-10-19 00:29:32,766 - INFO - torch.cuda.max_memory_reserved() : 9.49609375
2025-10-19 00:29:42,994 - INFO - 
[🔁 拟合反向传播时间模型]
2025-10-19 00:29:42,994 - INFO - 总反向传播时间: 10.143461s
2025-10-19 00:29:42,994 - INFO - 拟合模型: backward_total ≈ 2 × (A + B) + b
2025-10-19 00:29:42,994 - INFO - A = 7.149078, B = 0.446616, b = 2.547767s
2025-10-19 00:29:43,042 - INFO - Set parameter LicenseID to value 2706656
2025-10-19 00:29:43,069 - INFO - Set parameter LogToConsole to value 1
2025-10-19 00:29:43,070 - INFO - Set parameter LogFile to value ""
2025-10-19 00:29:43,070 - INFO - Set parameter Threads to value 12
2025-10-19 00:29:43,070 - INFO - Set parameter TimeLimit to value 3600
2025-10-19 00:29:43,070 - INFO - Set parameter OptimalityTol to value 0.0001
2025-10-19 00:29:43,070 - INFO - Set parameter IntFeasTol to value 1e-05
2025-10-19 00:29:43,070 - INFO - Set parameter StartNodeLimit to value 10000000
2025-10-19 00:29:43,135 - INFO - Set parameter TimeLimit to value 3600
2025-10-19 00:29:43,135 - INFO - 
2025-10-19 00:29:43,135 - INFO - 
2025-10-19 00:29:43,135 - INFO - Restarting solve
2025-10-19 00:29:43,135 - INFO - 
2025-10-19 00:29:43,135 - INFO - 
2025-10-19 00:29:43,137 - INFO - Gurobi Optimizer version 12.0.3 build v12.0.3rc0 (linux64 - "Ubuntu 20.04.6 LTS")
2025-10-19 00:29:43,137 - INFO - 
2025-10-19 00:29:43,137 - INFO - CPU model: Intel(R) Xeon(R) Platinum 8260 CPU @ 2.40GHz, instruction set [SSE2|AVX|AVX2|AVX512]
2025-10-19 00:29:43,137 - INFO - Thread count: 48 physical cores, 96 logical processors, using up to 12 threads
2025-10-19 00:29:43,137 - INFO - 
2025-10-19 00:29:43,137 - INFO - Non-default parameters:
2025-10-19 00:29:43,137 - INFO - TimeLimit  3600
2025-10-19 00:29:43,137 - INFO - OptimalityTol  0.0001
2025-10-19 00:29:43,137 - INFO - StartNodeLimit  10000000
2025-10-19 00:29:43,137 - INFO - Threads  12
2025-10-19 00:29:43,137 - INFO - 
2025-10-19 00:29:43,137 - INFO - Optimize a model with 5603 rows, 3584 columns and 15200 nonzeros
2025-10-19 00:29:43,137 - INFO - Model fingerprint: 0x4d5c85af
2025-10-19 00:29:43,138 - INFO - Variable types: 1024 continuous, 2560 integer (2560 binary)
2025-10-19 00:29:43,138 - INFO - Coefficient statistics:
2025-10-19 00:29:43,138 - INFO -   Matrix range     [1e+00, 4e+15]
2025-10-19 00:29:43,138 - INFO -   Objective range  [1e+05, 1e+06]
2025-10-19 00:29:43,138 - INFO -   Bounds range     [1e+00, 2e+16]
2025-10-19 00:29:43,138 - INFO -   RHS range        [1e+00, 2e+16]
2025-10-19 00:29:43,138 - INFO - Warning: Model contains large matrix coefficient range
2025-10-19 00:29:43,138 - INFO - Warning: Model contains large rhs
2025-10-19 00:29:43,138 - INFO - Warning: Model contains large bounds
2025-10-19 00:29:43,138 - INFO -          Consider reformulating model or setting NumericFocus parameter
2025-10-19 00:29:43,138 - INFO -          to avoid numerical issues.
2025-10-19 00:29:43,152 - INFO - Presolve removed 4283 rows and 1964 columns
2025-10-19 00:29:43,152 - INFO - Presolve time: 0.01s
2025-10-19 00:29:43,153 - INFO - Presolved: 1320 rows, 1620 columns, 4514 nonzeros
2025-10-19 00:29:43,154 - INFO - Variable types: 0 continuous, 1620 integer (1095 binary)
2025-10-19 00:29:43,165 - INFO - 
2025-10-19 00:29:43,165 - INFO - Root relaxation: objective 2.196718e+07, 465 iterations, 0.00 seconds (0.00 work units)
2025-10-19 00:29:43,171 - INFO - 
2025-10-19 00:29:43,171 - INFO -     Nodes    |    Current Node    |     Objective Bounds      |     Work
2025-10-19 00:29:43,171 - INFO -  Expl Unexpl |  Obj  Depth IntInf | Incumbent    BestBd   Gap | It/Node Time
2025-10-19 00:29:43,171 - INFO - 
2025-10-19 00:29:43,171 - INFO -      0     0 2.1967e+07    0   56          - 2.1967e+07      -     -    0s
2025-10-19 00:29:43,213 - INFO -      0     0 2.1978e+07    0   67          - 2.1978e+07      -     -    0s
2025-10-19 00:29:43,219 - INFO -      0     0 2.2069e+07    0   17          - 2.2069e+07      -     -    0s
2025-10-19 00:29:43,228 - INFO -      0     0 2.2069e+07    0    7          - 2.2069e+07      -     -    0s
2025-10-19 00:29:43,243 - INFO -      0     0 2.2069e+07    0    7          - 2.2069e+07      -     -    0s
2025-10-19 00:29:43,291 - INFO -      0     2 2.2069e+07    0    7          - 2.2069e+07      -     -    0s
2025-10-19 00:29:43,311 - INFO - *   29    49               7    2.206904e+07 2.2069e+07  0.00%   4.3    0s
2025-10-19 00:29:43,311 - INFO - 
2025-10-19 00:29:43,312 - INFO - Cutting planes:
2025-10-19 00:29:43,312 - INFO -   Cover: 23
2025-10-19 00:29:43,312 - INFO -   GUB cover: 1
2025-10-19 00:29:43,312 - INFO - 
2025-10-19 00:29:43,312 - INFO - Explored 79 nodes (847 simplex iterations) in 0.17 seconds (0.11 work units)
2025-10-19 00:29:43,312 - INFO - Thread count was 12 (of 96 available processors)
2025-10-19 00:29:43,312 - INFO - 
2025-10-19 00:29:43,312 - INFO - Solution count 1: 2.2069e+07 
2025-10-19 00:29:43,312 - INFO - 
2025-10-19 00:29:43,312 - INFO - Optimal solution found (tolerance 1.00e-04)
2025-10-19 00:29:43,312 - INFO - Warning: max constraint violation (2.0000e+00) exceeds tolerance
2025-10-19 00:29:43,313 - INFO -          (possibly due to large matrix coefficients)
2025-10-19 00:29:43,313 - INFO - Best objective 2.206904100000e+07, best bound 2.206904100000e+07, gap 0.0000%
2025-10-19 00:29:43,325 - INFO - 规划前的显存GB：18.0
2025-10-19 00:29:43,325 - INFO - 规划后的显存GB：16.774606704711914
2025-10-19 00:29:43,325 - INFO - ✅ 最优策略：[1, 1, 1, 1, 1, 1, 1, 1, 0, 1, 0, 1, 1, 1, 1, 0]
2025-10-19 00:29:43,325 - INFO - 📌 checkpoint 的欧氏长度:, []
2025-10-19 00:29:43,325 - INFO - 📌 checkpoint 的余弦长度:, [14, 42, 115]
2025-10-19 00:29:43,325 - INFO - 💾 最终显存峰值：%.2f MB % 19807.36321258545
2025-10-19 00:29:43,334 - INFO - Epoch 2 completed in 10.567485 seconds
2025-10-19 00:29:43,334 - INFO - torch.cuda.max_memory_reserved() : 9.49609375
2025-10-19 00:29:50,747 - INFO - Epoch 3 completed in 7.412939 seconds
2025-10-19 00:29:50,748 - INFO - 
====================== [第1个 Epoch 收集统计数据] ======================
2025-10-19 00:29:50,748 - INFO - 
🔍 EUCLIDEAN modules:
2025-10-19 00:29:50,748 - INFO - [Shapelet  14] forward_avg=0.008403s over 16 calls | peak=733.24MB | final=0.00MB
2025-10-19 00:29:50,748 - INFO - [Shapelet  28] forward_avg=0.009372s over 16 calls | peak=1257.07MB | final=0.00MB
2025-10-19 00:29:50,748 - INFO - [Shapelet  42] forward_avg=0.011921s over 16 calls | peak=1641.29MB | final=0.00MB
2025-10-19 00:29:50,748 - INFO - [Shapelet  57] forward_avg=0.013026s over 16 calls | peak=1901.19MB | final=0.00MB
2025-10-19 00:29:50,748 - INFO - [Shapelet  71] forward_avg=0.013701s over 16 calls | peak=2000.96MB | final=0.00MB
2025-10-19 00:29:50,748 - INFO - [Shapelet  86] forward_avg=0.013193s over 16 calls | peak=1952.37MB | final=0.00MB
2025-10-19 00:29:50,748 - INFO - [Shapelet 100] forward_avg=0.013065s over 16 calls | peak=1765.30MB | final=0.00MB
2025-10-19 00:29:50,748 - INFO - [Shapelet 115] forward_avg=0.011585s over 16 calls | peak=1411.02MB | final=0.00MB
2025-10-19 00:29:50,748 - INFO - 
🔍 COSINE modules:
2025-10-19 00:29:50,748 - INFO - [Shapelet  14] forward_avg=0.004520s over 16 calls | peak=446.59MB | final=0.00MB
2025-10-19 00:29:50,748 - INFO - [Shapelet  28] forward_avg=0.004867s over 16 calls | peak=783.97MB | final=0.00MB
2025-10-19 00:29:50,748 - INFO - [Shapelet  42] forward_avg=0.006433s over 16 calls | peak=1029.18MB | final=0.00MB
2025-10-19 00:29:50,748 - INFO - [Shapelet  57] forward_avg=0.007311s over 16 calls | peak=1190.34MB | final=0.00MB
2025-10-19 00:29:50,748 - INFO - [Shapelet  71] forward_avg=0.007606s over 16 calls | peak=1244.70MB | final=0.00MB
2025-10-19 00:29:50,748 - INFO - [Shapelet  86] forward_avg=0.008027s over 16 calls | peak=1199.87MB | final=0.00MB
2025-10-19 00:29:50,748 - INFO - [Shapelet 100] forward_avg=0.008386s over 16 calls | peak=1063.27MB | final=0.00MB
2025-10-19 00:29:50,748 - INFO - [Shapelet 115] forward_avg=0.007523s over 16 calls | peak=815.09MB | final=0.00MB
2025-10-19 00:29:50,748 - INFO - 
🔍 CROSS modules:
2025-10-19 00:29:50,748 - INFO - [Shapelet  14] forward_avg=0.001163s over 16 calls
2025-10-19 00:29:50,748 - INFO - [Shapelet  28] forward_avg=0.001643s over 16 calls
2025-10-19 00:29:50,748 - INFO - [Shapelet  42] forward_avg=0.001598s over 16 calls
2025-10-19 00:29:50,748 - INFO - [Shapelet  57] forward_avg=0.001935s over 16 calls
2025-10-19 00:29:50,748 - INFO - [Shapelet  71] forward_avg=0.002168s over 16 calls
2025-10-19 00:29:50,748 - INFO - [Shapelet  86] forward_avg=0.001945s over 16 calls
2025-10-19 00:29:50,748 - INFO - [Shapelet 100] forward_avg=0.002022s over 16 calls
2025-10-19 00:29:50,748 - INFO - [Shapelet 115] forward_avg=0.001483s over 16 calls
2025-10-19 00:29:50,748 - INFO - 
💾 模型第一次反向传播阶段的显存峰值（所有模块中的最大值）: 14575.55 MB
2025-10-19 00:29:50,749 - INFO - 
💾 模型初始显存: 128.80 MB
2025-10-19 00:29:50,749 - INFO - =======================================================================

2025-10-19 00:29:50,749 - INFO - torch.cuda.max_memory_reserved() : 18.77734375
2025-10-19 00:29:58,608 - INFO - Epoch 4 completed in 7.858578 seconds
2025-10-19 00:29:58,608 - INFO - torch.cuda.max_memory_reserved() : 18.77734375
2025-10-19 00:30:06,373 - INFO - Epoch 5 completed in 7.764761 seconds
2025-10-19 00:30:06,374 - INFO - torch.cuda.max_memory_reserved() : 18.77734375
2025-10-19 00:30:14,268 - INFO - Epoch 6 completed in 7.894141 seconds
2025-10-19 00:30:14,269 - INFO - torch.cuda.max_memory_reserved() : 18.77734375
2025-10-19 00:30:21,889 - INFO - Epoch 7 completed in 7.619607 seconds
2025-10-19 00:30:21,889 - INFO - torch.cuda.max_memory_reserved() : 18.77734375
2025-10-19 00:30:29,576 - INFO - Epoch 8 completed in 7.686297 seconds
2025-10-19 00:30:29,576 - INFO - torch.cuda.max_memory_reserved() : 18.77734375
2025-10-19 00:30:36,982 - INFO - Epoch 9 completed in 7.405470 seconds
2025-10-19 00:30:36,983 - INFO - torch.cuda.max_memory_reserved() : 18.77734375
2025-10-19 00:30:44,974 - INFO - Epoch 10 completed in 7.990408 seconds
2025-10-19 00:30:47,826 - INFO - torch.cuda.max_memory_reserved() : 18.77734375
2025-10-19 00:30:47,826 - INFO - !!!采用策略后的几个epoch 平均时间:7.70402517914772
2025-10-19 00:30:47,826 - INFO - 



